words_train/words_923_UNSAT.qaiger
aag 46 16 0 1 30
26
28
18
30
32
16
22
2
6
20
4
12
10
24
14
8
93
34 20 5
36 28 13
38 22 7
40 39 37
42 26 11
44 18 3
46 24 9
48 47 45
50 48 43
52 50 40
54 52 35
56 8 2
58 56 4
60 12 10
62 60 58
64 62 6
66 28 22
68 26 24
70 20 18
72 70 68
74 72 66
76 74 65
78 32 17
80 30 15
82 81 79
84 82 77
86 80 78
88 86 76
90 89 85
92 91 54
i0 2 y[4]
i1 2 y[5]
i2 2 y[0]
i3 2 y[6]
i4 2 y[7]
i5 1 x[7]
i6 2 y[2]
i7 1 x[0]
i8 1 x[2]
i9 2 y[1]
i10 1 x[1]
i11 1 x[5]
i12 1 x[4]
i13 2 y[3]
i14 1 x[6]
i15 1 x[3]
o0 bool[0]
c
simplified
  !=
    add
      and
        1 x
        2 y
      1
    add
      1
      2 y
