words_train/words_923_UNSAT.qaiger.qdimacs
p cnf 46 91
a 1 2 3 4 5 6 7 8 0
e 9 10 11 12 13 14 15 16 17 18 19 20 21 22 23 24 25 26 27 28 29 30 31 32 33 34 35 36 37 38 39 40 41 42 43 44 45 46 0
-10 2 17 0
10 -17 0
-2 -17 0
-14 6 18 0
14 -18 0
-6 -18 0
-11 3 19 0
11 -19 0
-3 -19 0
19 18 20 0
-19 -20 0
-18 -20 0
-13 5 21 0
13 -21 0
-5 -21 0
-9 1 22 0
9 -22 0
-1 -22 0
-12 4 23 0
12 -23 0
-4 -23 0
23 22 24 0
-23 -24 0
-22 -24 0
-24 21 25 0
24 -25 0
-21 -25 0
-25 -20 26 0
25 -26 0
20 -26 0
-26 17 27 0
26 -27 0
-17 -27 0
-4 -1 28 0
4 -28 0
1 -28 0
-28 -2 29 0
28 -29 0
2 -29 0
-6 -5 30 0
6 -30 0
5 -30 0
-30 -29 31 0
30 -31 0
29 -31 0
-31 -3 32 0
31 -32 0
3 -32 0
-14 -11 33 0
14 -33 0
11 -33 0
-13 -12 34 0
13 -34 0
12 -34 0
-10 -9 35 0
10 -35 0
9 -35 0
-35 -34 36 0
35 -36 0
34 -36 0
-36 -33 37 0
36 -37 0
33 -37 0
-37 32 38 0
37 -38 0
-32 -38 0
-16 8 39 0
16 -39 0
-8 -39 0
-15 7 40 0
15 -40 0
-7 -40 0
40 39 41 0
-40 -41 0
-39 -41 0
-41 38 42 0
41 -42 0
-38 -42 0
-40 -39 43 0
40 -43 0
39 -43 0
-43 -38 44 0
43 -44 0
38 -44 0
44 42 45 0
-44 -45 0
-42 -45 0
45 -27 46 0
-45 -46 0
27 -46 0
-46 0
